certificates/rado_a6_c254_N42.cnf
c Rad2 upper bound instance: x1 + 6*x2 - x3 = 254, interval [1,42]
p cnf 42 308
1 3 42 0
-1 -3 -42 0
2 4 42 0
-2 -4 -42 0
3 5 42 0
-3 -5 -42 0
4 6 42 0
-4 -6 -42 0
5 7 42 0
-5 -7 -42 0
6 8 42 0
-6 -8 -42 0
1 9 41 0
-1 -9 -41 0
7 9 42 0
-7 -9 -42 0
2 10 41 0
-2 -10 -41 0
8 10 42 0
-8 -10 -42 0
3 11 41 0
-3 -11 -41 0
9 11 42 0
-9 -11 -42 0
4 12 41 0
-4 -12 -41 0
10 12 42 0
-10 -12 -42 0
5 13 41 0
-5 -13 -41 0
11 13 42 0
-11 -13 -42 0
6 14 41 0
-6 -14 -41 0
12 14 42 0
-12 -14 -42 0
1 15 40 0
-1 -15 -40 0
7 15 41 0
-7 -15 -41 0
13 15 42 0
-13 -15 -42 0
2 16 40 0
-2 -16 -40 0
8 16 41 0
-8 -16 -41 0
14 16 42 0
-14 -16 -42 0
3 17 40 0
-3 -17 -40 0
9 17 41 0
-9 -17 -41 0
15 17 42 0
-15 -17 -42 0
4 18 40 0
-4 -18 -40 0
10 18 41 0
-10 -18 -41 0
16 18 42 0
-16 -18 -42 0
5 19 40 0
-5 -19 -40 0
11 19 41 0
-11 -19 -41 0
17 19 42 0
-17 -19 -42 0
6 20 40 0
-6 -20 -40 0
12 20 41 0
-12 -20 -41 0
18 20 42 0
-18 -20 -42 0
1 21 39 0
-1 -21 -39 0
7 21 40 0
-7 -21 -40 0
13 21 41 0
-13 -21 -41 0
19 21 42 0
-19 -21 -42 0
2 22 39 0
-2 -22 -39 0
8 22 40 0
-8 -22 -40 0
14 22 41 0
-14 -22 -41 0
20 22 42 0
-20 -22 -42 0
3 23 39 0
-3 -23 -39 0
9 23 40 0
-9 -23 -40 0
15 23 41 0
-15 -23 -41 0
21 23 42 0
-21 -23 -42 0
4 24 39 0
-4 -24 -39 0
10 24 40 0
-10 -24 -40 0
16 24 41 0
-16 -24 -41 0
22 24 42 0
-22 -24 -42 0
5 25 39 0
-5 -25 -39 0
11 25 40 0
-11 -25 -40 0
17 25 41 0
-17 -25 -41 0
23 25 42 0
-23 -25 -42 0
6 26 39 0
-6 -26 -39 0
12 26 40 0
-12 -26 -40 0
18 26 41 0
-18 -26 -41 0
24 26 42 0
-24 -26 -42 0
1 27 38 0
-1 -27 -38 0
7 27 39 0
-7 -27 -39 0
13 27 40 0
-13 -27 -40 0
19 27 41 0
-19 -27 -41 0
25 27 42 0
-25 -27 -42 0
2 28 38 0
-2 -28 -38 0
8 28 39 0
-8 -28 -39 0
14 28 40 0
-14 -28 -40 0
20 28 41 0
-20 -28 -41 0
26 28 42 0
-26 -28 -42 0
3 29 38 0
-3 -29 -38 0
9 29 39 0
-9 -29 -39 0
15 29 40 0
-15 -29 -40 0
21 29 41 0
-21 -29 -41 0
27 29 42 0
-27 -29 -42 0
4 30 38 0
-4 -30 -38 0
10 30 39 0
-10 -30 -39 0
16 30 40 0
-16 -30 -40 0
22 30 41 0
-22 -30 -41 0
28 30 42 0
-28 -30 -42 0
5 31 38 0
-5 -31 -38 0
11 31 39 0
-11 -31 -39 0
17 31 40 0
-17 -31 -40 0
23 31 41 0
-23 -31 -41 0
29 31 42 0
-29 -31 -42 0
6 32 38 0
-6 -32 -38 0
12 32 39 0
-12 -32 -39 0
18 32 40 0
-18 -32 -40 0
24 32 41 0
-24 -32 -41 0
30 32 42 0
-30 -32 -42 0
1 33 37 0
-1 -33 -37 0
7 33 38 0
-7 -33 -38 0
13 33 39 0
-13 -33 -39 0
19 33 40 0
-19 -33 -40 0
25 33 41 0
-25 -33 -41 0
31 33 42 0
-31 -33 -42 0
2 34 37 0
-2 -34 -37 0
8 34 38 0
-8 -34 -38 0
14 34 39 0
-14 -34 -39 0
20 34 40 0
-20 -34 -40 0
26 34 41 0
-26 -34 -41 0
32 34 42 0
-32 -34 -42 0
3 35 37 0
-3 -35 -37 0
9 35 38 0
-9 -35 -38 0
15 35 39 0
-15 -35 -39 0
21 35 40 0
-21 -35 -40 0
27 35 41 0
-27 -35 -41 0
33 35 42 0
-33 -35 -42 0
4 36 37 0
-4 -36 -37 0
10 36 38 0
-10 -36 -38 0
16 36 39 0
-16 -36 -39 0
22 36 40 0
-22 -36 -40 0
28 36 41 0
-28 -36 -41 0
34 36 42 0
-34 -36 -42 0
5 37 0
-5 -37 0
11 37 38 0
-11 -37 -38 0
17 37 39 0
-17 -37 -39 0
23 37 40 0
-23 -37 -40 0
29 37 41 0
-29 -37 -41 0
35 37 42 0
-35 -37 -42 0
6 37 38 0
-6 -37 -38 0
12 38 0
-12 -38 0
18 38 39 0
-18 -38 -39 0
24 38 40 0
-24 -38 -40 0
30 38 41 0
-30 -38 -41 0
36 38 42 0
-36 -38 -42 0
1 36 39 0
-1 -36 -39 0
7 37 39 0
-7 -37 -39 0
13 38 39 0
-13 -38 -39 0
19 39 0
-19 -39 0
25 39 40 0
-25 -39 -40 0
31 39 41 0
-31 -39 -41 0
37 39 42 0
-37 -39 -42 0
2 36 40 0
-2 -36 -40 0
8 37 40 0
-8 -37 -40 0
14 38 40 0
-14 -38 -40 0
20 39 40 0
-20 -39 -40 0
26 40 0
-26 -40 0
32 40 41 0
-32 -40 -41 0
38 40 42 0
-38 -40 -42 0
3 36 41 0
-3 -36 -41 0
9 37 41 0
-9 -37 -41 0
15 38 41 0
-15 -38 -41 0
21 39 41 0
-21 -39 -41 0
27 40 41 0
-27 -40 -41 0
33 41 0
-33 -41 0
39 41 42 0
-39 -41 -42 0
4 36 42 0
-4 -36 -42 0
10 37 42 0
-10 -37 -42 0
16 38 42 0
-16 -38 -42 0
22 39 42 0
-22 -39 -42 0
28 40 42 0
-28 -40 -42 0
34 41 42 0
-34 -41 -42 0
40 42 0
-40 -42 0
