certificates/rado_a6_c254_N42.drat
-42 0
40 0
-26 0
24 0
28 0
-10 0
-38 0
-14 0
8 0
12 0
36 0
37 0
16 0
-22 0
-39 0
0
